%nproc=16
%chk=glh_opt
#M062X/6-311G** scrf=smd opt

glh

0   1
N         14.33200       25.91300        9.22100
H         15.00000       26.52000        8.79000
C         14.31500       25.80900       10.67600
H         13.48800       25.28500       10.87800
C         15.48300       25.01800       11.27500
H         16.30600       25.58300       11.20800
H         15.27700       24.84300       12.23800
C         15.80200       23.69000       10.64000
H         14.95800       23.16100       10.55400
H         16.18900       23.85000        9.73200
C         16.80900       22.91600       11.49900
O         18.03300       23.18000       11.59000
O         16.32000       21.95900       12.15200
C         14.26600       27.21600       11.25500
O         15.26300       27.90700       11.34500
H         14.49851       24.97556        8.85511
H         13.36234       27.59388       11.58001
H         15.40628       21.76320       12.08303



