%nproc=16
%chk=3ov-h2
#HF/6-31G* scrf=smd opt

remark line goes here

-1   1
 O   -22.743000   -11.309000   -25.221000
 C   -22.145000   -10.345000   -24.657000
 O   -22.039000   -10.165000   -23.396000
 C   -21.338000    -9.346000   -25.524000
 C   -21.876000    -8.588000   -26.663000
 O   -22.297000    -7.373000   -26.480000
 C   -21.990000    -9.098000   -28.065000
 H   -20.812000    -8.684000   -24.821000
 H   -20.552000    -9.948000   -26.004000
 H   -21.043000    -9.151000   -28.618000
 H   -22.645000    -8.474000   -28.680000
 C   -22.588000   -10.502000   -27.986000
 H   -22.732000   -10.906000   -28.993000
 H   -23.562000   -10.496000   -27.486000
 H   -21.929000   -11.186000   -27.442000
 H   -20.904630    -8.846771   -27.029576
 H   -22.626211    -7.282077   -25.593516




