%nproc=16
%chk=nah
#HF/6-31G* scrf=smd opt 

remark line goes here

-2   1
    C  -20.7090000000       -4.1820000000      -26.7460000000     
    H  -21.5760000000       -3.5390000000      -26.7070000000     
    C  -20.5480000000       -5.0250000000      -27.8210000000     
    H  -21.3430000000       -5.1390000000      -28.5430000000     
    C  -19.6190000000       -6.0290000000      -27.7540000000     
    H  -20.0880000000       -6.8430000000      -27.8910000000     
    H  -19.0240000000       -5.9160000000      -28.4850000000     
    C  -18.8410000000       -6.2040000000      -26.6010000000     
    C  -17.8410000000       -7.3360000000      -26.5540000000     
    O  -17.9470000000       -8.2300000000      -27.3950000000     
    N  -16.8310000000       -7.2650000000      -25.6890000000     
    H  -16.9730000000       -7.5380000000      -24.7270000000     
    H  -15.9660000000       -6.8210000000      -25.9640000000     
    C  -19.0260000000       -5.3320000000      -25.5340000000     
    H  -18.1830000000       -5.1590000000      -24.8820000000     
    N  -19.9610000000       -4.3200000000      -25.6240000000     
    C  -20.0720000000       -3.3040000000      -24.5480000000     
    H  -20.9210000000       -2.6610000000      -24.7810000000     
    C  -20.3720000000       -3.8830000000      -23.1700000000     
    H  -19.6300000000       -4.6810000000      -23.1960000000     
    O  -21.7450000000       -4.2190000000      -23.0930000000     
    H  -21.8190000000       -5.1500000000      -22.9470000000     
    C  -19.9300000000       -2.7110000000      -22.2900000000     
    H  -19.6510000000       -3.0470000000      -21.2910000000     
    O  -20.9490000000       -1.7230000000      -22.2130000000     
    H  -20.7110000000       -1.0020000000      -22.7760000000     
    C  -18.7180000000       -2.1620000000      -23.0560000000     
    H  -18.8020000000       -1.0780000000      -23.1300000000     
    O  -18.8090000000       -2.7090000000      -24.3850000000     
    C  -17.3660000000       -2.5150000000      -22.5000000000     
    H  -16.5770000000       -2.2200000000      -23.1910000000     
    H  -17.1900000000       -2.0120000000      -21.5490000000     
    O  -17.3310000000       -3.9540000000      -22.3120000000     
    P  -15.9510000000       -4.7290000000      -22.4620000000     
    O  -14.8010000000       -3.7960000000      -22.6530000000     
    O  -16.2080000000       -5.8510000000      -23.4200000000     
    O  -15.8230000000       -5.4010000000      -21.0180000000     
    P  -14.7700000000       -5.3890000000      -19.8380000000     
    O  -15.3200000000       -6.2880000000      -18.7820000000     
    O  -13.3650000000       -5.6260000000      -20.3270000000     
    O  -14.8330000000       -3.8850000000      -19.3180000000     
    C  -16.0190000000       -3.3710000000      -18.6540000000     
    H  -16.6060000000       -4.2030000000      -18.2650000000     
    H  -16.6370000000       -2.8350000000      -19.3750000000     
    C  -15.5870000000       -2.4540000000      -17.5340000000     
    H  -15.0350000000       -1.6130000000      -17.9530000000     
    O  -16.7870000000       -1.9380000000      -16.9090000000     
    C  -14.7570000000       -3.0930000000      -16.4070000000     
    H  -14.5320000000       -4.1220000000      -16.6850000000     
    O  -13.5560000000       -2.3880000000      -16.0980000000     
    H  -13.5230000000       -1.6050000000      -16.6260000000     
    C  -15.7520000000       -3.1220000000      -15.2410000000     
    H  -16.4140000000       -3.9860000000      -15.3020000000     
    O  -15.1230000000       -3.0680000000      -13.9780000000     
    H  -14.3200000000       -2.5770000000      -14.0640000000     
    C  -16.5450000000       -1.8600000000      -15.5310000000     
    H  -15.9170000000       -1.0360000000      -15.1930000000     
    N  -17.8130000000       -1.7710000000      -14.8100000000     
    C  -18.7420000000       -2.7750000000      -14.6370000000     
    H  -18.5070000000       -3.8090000000      -14.8440000000     
    N  -19.7560000000       -2.4310000000      -13.8690000000     
    C  -19.4860000000       -1.1080000000      -13.5240000000     
    C  -20.1800000000       -0.1770000000      -12.7220000000     
    N  -21.3020000000       -0.4450000000      -12.0410000000     
    H  -21.2460000000       -0.8090000000      -11.1010000000     
    H  -22.1440000000        0.0410000000      -12.3140000000     
    N  -19.6190000000        1.0500000000      -12.5910000000     
    C  -18.4520000000        1.3020000000      -13.2090000000     
    H  -18.2550000000        2.3540000000      -13.3560000000     
    N  -17.6980000000        0.5020000000      -13.9590000000     
    C  -18.2830000000       -0.6990000000      -14.0910000000     


