%nproc=16
%oldchk=nah
%chk=nah2
#HF/6-31G* scrf=smd opt geom=check

remark line goes here

-2   1


