%nproc=16
%chk=tyr-
#HF/6-31G* scrf=smd opt

remark line goes here

-1   1
    C  -28.5780000000       -6.8840000000      -22.1340000000     
    C  -27.5530000000       -7.9610000000      -22.4710000000     
    H  -27.2690000000       -8.5140000000      -21.5760000000     
    H  -28.0700000000       -8.6160000000      -23.1720000000     
    C  -26.3240000000       -7.4140000000      -23.1320000000     
    C  -25.3780000000       -6.7360000000      -22.3900000000     
    H  -25.3850000000       -6.8950000000      -21.3220000000     
    C  -24.1980000000       -6.3010000000      -22.9550000000     
    H  -23.3610000000       -6.0360000000      -22.3270000000     
    C  -24.0480000000       -6.3440000000      -24.3230000000     
    O  -22.9220000000       -5.7920000000      -24.8600000000     
    C  -26.1780000000       -7.4260000000      -24.5080000000     
    H  -27.0770000000       -7.4380000000      -25.1060000000     
    C  -25.0260000000       -6.9410000000      -25.0980000000     
    H  -24.7590000000       -7.2960000000      -26.0820000000     
    H  -28.8490000000       -6.3430000000      -23.0410000000     
    H  -28.1510000000       -6.1900000000      -21.4110000000     
    H  -29.4680000000       -7.3500000000      -21.7100000000     



